\Generated by Cardinal Operations

Minimize
   5 x_1_1 + 8 x_2_1 + 8 x_2_2 + 10 x_3_1 + 10 x_3_2 + 10 x_3_3 + 12 x_4_1 
   + 12 x_4_2 + 12 x_4_3 + 12 x_4_4 + 16 x_5_1 + 16 x_5_2 + 16 x_5_3 
   + 16 x_5_4 + 16 x_5_5 + 18 x_6_1 + 18 x_6_2 + 18 x_6_3 + 18 x_6_4 
   + 18 x_6_5 + 18 x_6_6 + 1200 y(1) + 1200 y(2) + 1200 y(3) + 1200 y(4) 
   + 1200 y(5) + 1200 y(6) 
Subject To
 demand_satisfaction_1: x_1_1 + x_2_1 + x_3_1 + x_4_1 + x_5_1 + x_6_1 = 500
 demand_satisfaction_2: x_2_2 + x_3_2 + x_4_2 + x_5_2 + x_6_2 = 550
 demand_satisfaction_3: x_3_3 + x_4_3 + x_5_3 + x_6_3 = 700
 demand_satisfaction_4: x_4_4 + x_5_4 + x_6_4 = 900
 demand_satisfaction_5: x_5_5 + x_6_5 = 400
 demand_satisfaction_6: x_6_6 = 300
 fixed_cost_trigger_1: x_1_1 - 3350 y(1) <= 0
 fixed_cost_trigger_2: x_2_1 + x_2_2 - 3350 y(2) <= 0
 fixed_cost_trigger_3: x_3_1 + x_3_2 + x_3_3 - 3350 y(3) <= 0
 fixed_cost_trigger_4: x_4_1 + x_4_2 + x_4_3 + x_4_4 - 3350 y(4) <= 0
 fixed_cost_trigger_5: x_5_1 + x_5_2 + x_5_3 + x_5_4 + x_5_5 - 3350 y(5) 
   <= 0
 fixed_cost_trigger_6: x_6_1 + x_6_2 + x_6_3 + x_6_4 + x_6_5 + x_6_6 
   - 3350 y(6) <= 0
Generals
 x_1_1  x_2_1  x_2_2  x_3_1  x_3_2  x_3_3  x_4_1  x_4_2  x_4_3  x_4_4  
 x_5_1  x_5_2  x_5_3  x_5_4  x_5_5  x_6_1  x_6_2  x_6_3  x_6_4  x_6_5  
 x_6_6  
Binaries
 y(1)  y(2)  y(3)  y(4)  y(5)  y(6)  
END

